# Solution for model Food_Bank
# Objective value = 4.0165174211228797e+06
x_1_172 0
x_1_62 0
x_1_206 0
x_1_210 1
x_1_33 1
x_1_153 1
x_1_102 1
x_1_151 1
x_1_4 0
x_1_162 1
x_1_53 1
x_1_5 0
x_1_6 0
x_1_222 1
x_1_215 0
x_1_165 0
x_1_30 0
x_1_155 0
x_1_207 1
x_1_196 0
x_1_110 1
x_1_140 0
x_1_25 0
y_172_93 0
y_172_80 0
y_172_68 0
y_172_67 0
y_172_63 0
y_172_92 0
y_172_82 0
y_172_66 0
y_172_56 0
y_172_40 0
y_62_93 0
y_62_80 0
y_62_68 0
y_62_67 0
y_62_63 0
y_62_92 0
y_62_82 0
y_62_66 0
y_62_56 0
y_62_40 0
y_206_93 0
y_206_80 0
y_206_68 0
y_206_67 0
y_206_63 0
y_206_92 0
y_206_82 0
y_206_66 0
y_206_56 0
y_206_40 0
y_210_93 0
y_210_80 0
y_210_68 0
y_210_67 1
y_210_63 0
y_210_92 0
y_210_82 0
y_210_66 0
y_210_56 0
y_210_40 0
y_33_93 1
y_33_80 0
y_33_68 0
y_33_67 0
y_33_63 0
y_33_92 0
y_33_82 0
y_33_66 0
y_33_56 0
y_33_40 0
y_153_93 0
y_153_80 0
y_153_68 0
y_153_67 0
y_153_63 0
y_153_92 0
y_153_82 1
y_153_66 0
y_153_56 0
y_153_40 0
y_102_93 0
y_102_80 1
y_102_68 0
y_102_67 0
y_102_63 0
y_102_92 0
y_102_82 0
y_102_66 0
y_102_56 0
y_102_40 0
y_151_93 0
y_151_80 0
y_151_68 0
y_151_67 0
y_151_63 0
y_151_92 0
y_151_82 0
y_151_66 0
y_151_56 0
y_151_40 1
y_4_93 0
y_4_80 0
y_4_68 0
y_4_67 0
y_4_63 0
y_4_92 0
y_4_82 0
y_4_66 0
y_4_56 0
y_4_40 0
y_162_93 0
y_162_80 0
y_162_68 0
y_162_67 0
y_162_63 0
y_162_92 1
y_162_82 0
y_162_66 0
y_162_56 0
y_162_40 0
y_53_93 0
y_53_80 0
y_53_68 0
y_53_67 0
y_53_63 0
y_53_92 0
y_53_82 0
y_53_66 0
y_53_56 1
y_53_40 0
y_5_93 0
y_5_80 0
y_5_68 0
y_5_67 0
y_5_63 0
y_5_92 0
y_5_82 0
y_5_66 0
y_5_56 0
y_5_40 0
y_6_93 0
y_6_80 0
y_6_68 0
y_6_67 0
y_6_63 0
y_6_92 0
y_6_82 0
y_6_66 0
y_6_56 0
y_6_40 0
y_222_93 0
y_222_80 0
y_222_68 0
y_222_67 0
y_222_63 0
y_222_92 0
y_222_82 0
y_222_66 1
y_222_56 0
y_222_40 0
y_215_93 0
y_215_80 0
y_215_68 0
y_215_67 0
y_215_63 0
y_215_92 0
y_215_82 0
y_215_66 0
y_215_56 0
y_215_40 0
y_165_93 0
y_165_80 0
y_165_68 0
y_165_67 0
y_165_63 0
y_165_92 0
y_165_82 0
y_165_66 0
y_165_56 0
y_165_40 0
y_30_93 0
y_30_80 0
y_30_68 0
y_30_67 0
y_30_63 0
y_30_92 0
y_30_82 0
y_30_66 0
y_30_56 0
y_30_40 0
y_155_93 0
y_155_80 0
y_155_68 0
y_155_67 0
y_155_63 0
y_155_92 0
y_155_82 0
y_155_66 0
y_155_56 0
y_155_40 0
y_207_93 0
y_207_80 0
y_207_68 1
y_207_67 0
y_207_63 0
y_207_92 0
y_207_82 0
y_207_66 0
y_207_56 0
y_207_40 0
y_196_93 0
y_196_80 0
y_196_68 0
y_196_67 0
y_196_63 0
y_196_92 0
y_196_82 0
y_196_66 0
y_196_56 0
y_196_40 0
y_110_93 0
y_110_80 0
y_110_68 0
y_110_67 0
y_110_63 1
y_110_92 0
y_110_82 0
y_110_66 0
y_110_56 0
y_110_40 0
y_140_93 0
y_140_80 0
y_140_68 0
y_140_67 0
y_140_63 0
y_140_92 0
y_140_82 0
y_140_66 0
y_140_56 0
y_140_40 0
y_25_93 0
y_25_80 0
y_25_68 0
y_25_67 0
y_25_63 0
y_25_92 0
y_25_82 0
y_25_66 0
y_25_56 0
y_25_40 0
aFP_1_172 0
aFP_1_62 0
aFP_1_206 0
aFP_1_210 2.3957125385295653e+03
aFP_1_33 6.8550844543638377e+03
aFP_1_153 8.4514091715054838e+03
aFP_1_102 5.0454308367474350e+03
aFP_1_151 3.7766599242717834e+03
aFP_1_4 0
aFP_1_162 1.2675189508341653e+03
aFP_1_53 2.0380353908405307e+03
aFP_1_5 0
aFP_1_6 0
aFP_1_222 1.4454326478198177e+03
aFP_1_215 0
aFP_1_165 0
aFP_1_30 0
aFP_1_155 0
aFP_1_207 5.0579645934653909e+03
aFP_1_196 0
aFP_1_110 3.7856188811395791e+03
aFP_1_140 0
aFP_1_25 0
aPZ_172_93 0
aPZ_62_93 0
aPZ_206_93 0
aPZ_210_93 0
aPZ_33_93 6.8550844543638441e+03
aPZ_153_93 0
aPZ_102_93 0
aPZ_151_93 0
aPZ_4_93 0
aPZ_162_93 0
aPZ_53_93 0
aPZ_5_93 0
aPZ_6_93 0
aPZ_222_93 0
aPZ_215_93 0
aPZ_165_93 0
aPZ_30_93 0
aPZ_155_93 0
aPZ_207_93 0
aPZ_196_93 0
aPZ_110_93 0
aPZ_140_93 0
aPZ_25_93 0
aPZ_172_80 0
aPZ_62_80 0
aPZ_206_80 0
aPZ_210_80 0
aPZ_33_80 0
aPZ_153_80 0
aPZ_102_80 5.0454308367474259e+03
aPZ_151_80 0
aPZ_4_80 0
aPZ_162_80 0
aPZ_53_80 0
aPZ_5_80 0
aPZ_6_80 0
aPZ_222_80 0
aPZ_215_80 0
aPZ_165_80 0
aPZ_30_80 0
aPZ_155_80 0
aPZ_207_80 0
aPZ_196_80 0
aPZ_110_80 0
aPZ_140_80 0
aPZ_25_80 0
aPZ_172_68 0
aPZ_62_68 0
aPZ_206_68 0
aPZ_210_68 0
aPZ_33_68 0
aPZ_153_68 0
aPZ_102_68 0
aPZ_151_68 0
aPZ_4_68 0
aPZ_162_68 0
aPZ_53_68 0
aPZ_5_68 0
aPZ_6_68 0
aPZ_222_68 0
aPZ_215_68 0
aPZ_165_68 0
aPZ_30_68 0
aPZ_155_68 0
aPZ_207_68 5.0579645934654009e+03
aPZ_196_68 0
aPZ_110_68 0
aPZ_140_68 0
aPZ_25_68 0
aPZ_172_67 0
aPZ_62_67 0
aPZ_206_67 0
aPZ_210_67 2.3957125385295603e+03
aPZ_33_67 0
aPZ_153_67 0
aPZ_102_67 0
aPZ_151_67 0
aPZ_4_67 0
aPZ_162_67 0
aPZ_53_67 0
aPZ_5_67 0
aPZ_6_67 0
aPZ_222_67 0
aPZ_215_67 0
aPZ_165_67 0
aPZ_30_67 0
aPZ_155_67 0
aPZ_207_67 0
aPZ_196_67 0
aPZ_110_67 0
aPZ_140_67 0
aPZ_25_67 0
aPZ_172_63 0
aPZ_62_63 0
aPZ_206_63 0
aPZ_210_63 0
aPZ_33_63 0
aPZ_153_63 0
aPZ_102_63 0
aPZ_151_63 0
aPZ_4_63 0
aPZ_162_63 0
aPZ_53_63 0
aPZ_5_63 0
aPZ_6_63 0
aPZ_222_63 0
aPZ_215_63 0
aPZ_165_63 0
aPZ_30_63 0
aPZ_155_63 0
aPZ_207_63 0
aPZ_196_63 0
aPZ_110_63 3.7856188811395741e+03
aPZ_140_63 0
aPZ_25_63 0
aPZ_172_92 0
aPZ_62_92 0
aPZ_206_92 0
aPZ_210_92 0
aPZ_33_92 0
aPZ_153_92 0
aPZ_102_92 0
aPZ_151_92 0
aPZ_4_92 0
aPZ_162_92 1.2675189508341612e+03
aPZ_53_92 0
aPZ_5_92 0
aPZ_6_92 0
aPZ_222_92 0
aPZ_215_92 0
aPZ_165_92 0
aPZ_30_92 0
aPZ_155_92 0
aPZ_207_92 0
aPZ_196_92 0
aPZ_110_92 0
aPZ_140_92 0
aPZ_25_92 0
aPZ_172_82 0
aPZ_62_82 0
aPZ_206_82 0
aPZ_210_82 0
aPZ_33_82 0
aPZ_153_82 8451.40917150551
aPZ_102_82 0
aPZ_151_82 0
aPZ_4_82 0
aPZ_162_82 0
aPZ_53_82 0
aPZ_5_82 0
aPZ_6_82 0
aPZ_222_82 0
aPZ_215_82 0
aPZ_165_82 0
aPZ_30_82 0
aPZ_155_82 0
aPZ_207_82 0
aPZ_196_82 0
aPZ_110_82 0
aPZ_140_82 0
aPZ_25_82 0
aPZ_172_66 0
aPZ_62_66 0
aPZ_206_66 0
aPZ_210_66 0
aPZ_33_66 0
aPZ_153_66 0
aPZ_102_66 0
aPZ_151_66 0
aPZ_4_66 0
aPZ_162_66 0
aPZ_53_66 0
aPZ_5_66 0
aPZ_6_66 0
aPZ_222_66 1.4454326478198129e+03
aPZ_215_66 0
aPZ_165_66 0
aPZ_30_66 0
aPZ_155_66 0
aPZ_207_66 0
aPZ_196_66 0
aPZ_110_66 0
aPZ_140_66 0
aPZ_25_66 0
aPZ_172_56 0
aPZ_62_56 0
aPZ_206_56 0
aPZ_210_56 0
aPZ_33_56 0
aPZ_153_56 0
aPZ_102_56 0
aPZ_151_56 0
aPZ_4_56 0
aPZ_162_56 0
aPZ_53_56 2.0380353908405812e+03
aPZ_5_56 0
aPZ_6_56 0
aPZ_222_56 0
aPZ_215_56 0
aPZ_165_56 0
aPZ_30_56 0
aPZ_155_56 0
aPZ_207_56 0
aPZ_196_56 0
aPZ_110_56 0
aPZ_140_56 0
aPZ_25_56 0
aPZ_172_40 0
aPZ_62_40 0
aPZ_206_40 0
aPZ_210_40 0
aPZ_33_40 0
aPZ_153_40 0
aPZ_102_40 0
aPZ_151_40 3.7766599242717771e+03
aPZ_4_40 0
aPZ_162_40 0
aPZ_53_40 0
aPZ_5_40 0
aPZ_6_40 0
aPZ_222_40 0
aPZ_215_40 0
aPZ_165_40 0
aPZ_30_40 0
aPZ_155_40 0
aPZ_207_40 0
aPZ_196_40 0
aPZ_110_40 0
aPZ_140_40 0
aPZ_25_40 0
nT_1_172 0
nT_1_62 0
nT_1_206 0
nT_1_210 1
nT_1_33 1
nT_1_153 1
nT_1_102 1
nT_1_151 1
nT_1_4 0
nT_1_162 1
nT_1_53 1
nT_1_5 0
nT_1_6 0
nT_1_222 1
nT_1_215 0
nT_1_165 0
nT_1_30 0
nT_1_155 0
nT_1_207 1
nT_1_196 0
nT_1_110 1
nT_1_140 0
nT_1_25 0
ort_1_172 0
ort_1_62 0
ort_1_206 0
ort_1_210 6.4864864864864868e+00
ort_1_33 6.4864864864864868e+00
ort_1_153 6.4864864864864868e+00
ort_1_102 6.4864864864864868e+00
ort_1_151 6.4864864864864868e+00
ort_1_4 0
ort_1_162 6.4864864864864868e+00
ort_1_53 6.4864864864864868e+00
ort_1_5 0
ort_1_6 0
ort_1_222 6.4864864864864868e+00
ort_1_215 0
ort_1_165 0
ort_1_30 0
ort_1_155 0
ort_1_207 6.4864864864864868e+00
ort_1_196 0
ort_1_110 6.4864864864864868e+00
ort_1_140 0
ort_1_25 0
opt_1_172 0
opt_1_62 0
opt_1_206 0
opt_1_210 4.4200341928929969e+00
opt_1_33 4.1370655971012749e+00
opt_1_153 4.0305826945775332e+00
opt_1_102 3.9942149446487591e+00
opt_1_151 4.0576534902725507e+00
opt_1_4 0
opt_1_162 4.1564438722777668e+00
opt_1_53 3.9779180502774447e+00
opt_1_5 0
opt_1_6 0
opt_1_222 3.9742148540951514e+00
opt_1_215 0
opt_1_165 0
opt_1_30 0
opt_1_155 0
opt_1_207 3.6869215901461958e+00
opt_1_196 0
opt_1_110 3.6905388757624973e+00
opt_1_140 0
opt_1_25 0
dt_172_93 0
dt_172_80 0
dt_172_68 0
dt_172_67 0
dt_172_63 0
dt_172_92 0
dt_172_82 0
dt_172_66 0
dt_172_56 0
dt_172_40 0
dt_62_93 0
dt_62_80 0
dt_62_68 0
dt_62_67 0
dt_62_63 0
dt_62_92 0
dt_62_82 0
dt_62_66 0
dt_62_56 0
dt_62_40 0
dt_206_93 0
dt_206_80 0
dt_206_68 0
dt_206_67 0
dt_206_63 0
dt_206_92 0
dt_206_82 0
dt_206_66 0
dt_206_56 0
dt_206_40 0
dt_210_93 0
dt_210_80 0
dt_210_68 0
dt_210_67 1.2944993884836913e+00
dt_210_63 0
dt_210_92 0
dt_210_82 0
dt_210_66 0
dt_210_56 0
dt_210_40 0
dt_33_93 2.7912795590261945e+00
dt_33_80 0
dt_33_68 0
dt_33_67 0
dt_33_63 0
dt_33_92 0
dt_33_82 0
dt_33_66 0
dt_33_56 0
dt_33_40 0
dt_153_93 0
dt_153_80 0
dt_153_68 0
dt_153_67 0
dt_153_63 0
dt_153_92 0
dt_153_82 3.3019932100260623e+00
dt_153_66 0
dt_153_56 0
dt_153_40 0
dt_102_93 0
dt_102_80 2.8619007928606233e+00
dt_102_68 0
dt_102_67 0
dt_102_63 0
dt_102_92 0
dt_102_82 0
dt_102_66 0
dt_102_56 0
dt_102_40 0
dt_151_93 0
dt_151_80 0
dt_151_68 0
dt_151_67 0
dt_151_63 0
dt_151_92 0
dt_151_82 0
dt_151_66 0
dt_151_56 0
dt_151_40 2.8418309734939884e+00
dt_4_93 0
dt_4_80 0
dt_4_68 0
dt_4_67 0
dt_4_63 0
dt_4_92 0
dt_4_82 0
dt_4_66 0
dt_4_56 0
dt_4_40 0
dt_162_93 0
dt_162_80 0
dt_162_68 0
dt_162_67 0
dt_162_63 0
dt_162_92 1.1396316327908378e+00
dt_162_82 0
dt_162_66 0
dt_162_56 0
dt_162_40 0
dt_53_93 0
dt_53_80 0
dt_53_68 0
dt_53_67 0
dt_53_63 0
dt_53_92 0
dt_53_82 0
dt_53_66 0
dt_53_56 2.0333123867929555e+00
dt_53_40 0
dt_5_93 0
dt_5_80 0
dt_5_68 0
dt_5_67 0
dt_5_63 0
dt_5_92 0
dt_5_82 0
dt_5_66 0
dt_5_56 0
dt_5_40 0
dt_6_93 0
dt_6_80 0
dt_6_68 0
dt_6_67 0
dt_6_63 0
dt_6_92 0
dt_6_82 0
dt_6_66 0
dt_6_56 0
dt_6_40 0
dt_222_93 0
dt_222_80 0
dt_222_68 0
dt_222_67 0
dt_222_63 0
dt_222_92 0
dt_222_82 0
dt_222_66 1.3379014267351785e+00
dt_222_56 0
dt_222_40 0
dt_215_93 0
dt_215_80 0
dt_215_68 0
dt_215_67 0
dt_215_63 0
dt_215_92 0
dt_215_82 0
dt_215_66 0
dt_215_56 0
dt_215_40 0
dt_165_93 0
dt_165_80 0
dt_165_68 0
dt_165_67 0
dt_165_63 0
dt_165_92 0
dt_165_82 0
dt_165_66 0
dt_165_56 0
dt_165_40 0
dt_30_93 0
dt_30_80 0
dt_30_68 0
dt_30_67 0
dt_30_63 0
dt_30_92 0
dt_30_82 0
dt_30_66 0
dt_30_56 0
dt_30_40 0
dt_155_93 0
dt_155_80 0
dt_155_68 0
dt_155_67 0
dt_155_63 0
dt_155_92 0
dt_155_82 0
dt_155_66 0
dt_155_56 0
dt_155_40 0
dt_207_93 0
dt_207_80 0
dt_207_68 2.5462876077115983e+00
dt_207_67 0
dt_207_63 0
dt_207_92 0
dt_207_82 0
dt_207_66 0
dt_207_56 0
dt_207_40 0
dt_196_93 0
dt_196_80 0
dt_196_68 0
dt_196_67 0
dt_196_63 0
dt_196_92 0
dt_196_82 0
dt_196_66 0
dt_196_56 0
dt_196_40 0
dt_110_93 0
dt_110_80 0
dt_110_68 0
dt_110_67 0
dt_110_63 2.6449666083976440e+00
dt_110_92 0
dt_110_82 0
dt_110_66 0
dt_110_56 0
dt_110_40 0
dt_140_93 0
dt_140_80 0
dt_140_68 0
dt_140_67 0
dt_140_63 0
dt_140_92 0
dt_140_82 0
dt_140_66 0
dt_140_56 0
dt_140_40 0
dt_25_93 0
dt_25_80 0
dt_25_68 0
dt_25_67 0
dt_25_63 0
dt_25_92 0
dt_25_82 0
dt_25_66 0
dt_25_56 0
dt_25_40 0
ut_1_172 0
ut_1_62 0
ut_1_206 0
ut_1_210 8.3849938848776417e-01
ut_1_33 2.3992795590298166e+00
ut_1_153 2.9579932100293411e+00
ut_1_102 1.7659007928640917e+00
ut_1_151 1.3218309734975504e+00
ut_1_4 0
ut_1_162 4.4363163279437479e-01
ut_1_53 7.1331238679662523e-01
ut_1_5 0
ut_1_6 0
ut_1_222 0.505901426739344
ut_1_215 0
ut_1_165 0
ut_1_30 0
ut_1_155 0
ut_1_207 1.7702876077153684e+00
ut_1_196 0
ut_1_110 1.3249666084012595e+00
ut_1_140 0
ut_1_25 0
fFP_1_172 0
fFP_1_62 0
fFP_1_206 0
fFP_1_210 37
fFP_1_33 37
fFP_1_153 37
fFP_1_102 37
fFP_1_151 37
fFP_1_4 0
fFP_1_162 37
fFP_1_53 37
fFP_1_5 0
fFP_1_6 0
fFP_1_222 37
fFP_1_215 0
fFP_1_165 0
fFP_1_30 0
fFP_1_155 0
fFP_1_207 37
fFP_1_196 0
fFP_1_110 37
fFP_1_140 0
fFP_1_25 0
dt_93 2.7912795590268811e+00
dt_80 2.8619007928612694e+00
dt_68 2.5462876077122556e+00
dt_67 1.2944993884851108e+00
dt_63 2.6449666083985246e+00
dt_92 1.1396316327918656e+00
dt_82 3.3019932100265
dt_66 1.3379014267367664e+00
dt_56 2.0333123867940257e+00
dt_40 2.8418309734948162e+00
dtt_93 1.0327734368399508e+02
dtt_80 1.0589032933586755e+02
dtt_68 9.4212641485354069e+01
dtt_67 4.7896477373950418e+01
dtt_63 9.7863764510746023e+01
dtt_92 4.2166370413304769e+01
dtt_82 1.2217374877098078e+02
dtt_66 4.9502352789264876e+01
dtt_56 75.2325583113803
dtt_40 1.0514774601930884e+02
dt_last_93 0
dt_last_80 0
dt_last_68 0
dt_last_67 0
dt_last_63 0
dt_last_92 0
dt_last_82 0
dt_last_66 0
dt_last_56 0
dt_last_40 0
dep_cost 3.8890690863981633e+06
log_cost 1.2744833472471643e+05
